 # Version information for this restart file 
 # current date 2025-08-20 12:10:44.348
 # current working dir /lustre/home/iem/jramos/2025-ZEO_ADS/03-ZEOLITES_CELLOPTFULL_DFTD2/CP2K_MFI_Al00_111
 # Program compiled at                              Mon Nov 18 17:59:34 CET 2024
 # Program compiled on                             drago31010003.mgmt.cc.csic.es
 # Program compiled for                                        Linux-x86-64-foss
 # Source code revision number                                       git:b888bd8
 &GLOBAL
   PRINT_LEVEL  MEDIUM
   PROJECT_NAME MFI_Al00_111
   RUN_TYPE  CELL_OPT
   FLUSH_SHOULD_FLUSH  F
   SEED  172015
   SAVE_MEM  T
 &END GLOBAL
 &MOTION
   &CELL_OPT
     OPTIMIZER  CG
     MAX_ITER  200
     MAX_DR     3.0000000000000001E-03
     MAX_FORCE     2.9999999999999997E-04
     RMS_DR     1.5000000000000000E-03
     RMS_FORCE     1.4999999999999999E-04
     STEP_START_VAL  62
     TYPE  DIRECT_CELL_OPT
     EXTERNAL_PRESSURE     0.0000000000000000E+00
     KEEP_ANGLES  F
     &CG
       &LINE_SEARCH
         TYPE  2PNT
         &2PNT
         &END 2PNT
       &END LINE_SEARCH
     &END CG
   &END CELL_OPT
   &PRINT
     &TRAJECTORY  SILENT
       FORMAT  PDB
       &EACH
         CELL_OPT  1
       &END EACH
     &END TRAJECTORY
     &RESTART  SILENT
       BACKUP_COPIES  0
     &END RESTART
     &RESTART_HISTORY  OFF
     &END RESTART_HISTORY
   &END PRINT
 &END MOTION
 &FORCE_EVAL
   METHOD  QS
   STRESS_TENSOR  ANALYTICAL
   &DFT
     BASIS_SET_FILE_NAME BASIS_MOLOPT
     POTENTIAL_FILE_NAME GTH_POTENTIALS
     CHARGE  0
     &SCF
       MAX_SCF  200
       EPS_SCF     9.9999999999999995E-07
       SCF_GUESS  RESTART
       &OT  T
         MINIMIZER  DIIS
         PRECONDITIONER  FULL_KINETIC
         PRECOND_SOLVER  INVERSE_CHOLESKY
       &END OT
       &OUTER_SCF  T
         EPS_SCF     9.9999999999999995E-07
         MAX_SCF  50
       &END OUTER_SCF
       &PRINT
         &RESTART  SILENT
           ADD_LAST  NUMERIC
           BACKUP_COPIES  0
         &END RESTART
       &END PRINT
     &END SCF
     &QS
       EPS_DEFAULT     1.0000000000000000E-10
       EXTRAPOLATION  ASPC
       EXTRAPOLATION_ORDER  3
       METHOD  GPW
     &END QS
     &MGRID
       NGRIDS  5
       CUTOFF     4.0000000000000000E+02
       REL_CUTOFF     6.0000000000000000E+01
     &END MGRID
     &XC
       DENSITY_CUTOFF     1.0000000000000000E-10
       GRADIENT_CUTOFF     1.0000000000000000E-10
       TAU_CUTOFF     1.0000000000000000E-10
       &XC_FUNCTIONAL  NO_SHORTCUT
         &PBE  T
         &END PBE
       &END XC_FUNCTIONAL
       &VDW_POTENTIAL
         POTENTIAL_TYPE  PAIR_POTENTIAL
         &PAIR_POTENTIAL
           TYPE  DFTD2
           REFERENCE_FUNCTIONAL PBE
         &END PAIR_POTENTIAL
       &END VDW_POTENTIAL
     &END XC
     &PRINT
       &MULLIKEN  OFF
       &END MULLIKEN
       &HIRSHFELD  OFF
       &END HIRSHFELD
     &END PRINT
   &END DFT
   &SUBSYS
     &CELL
       A     2.0165036286194994E+01    0.0000000000000000E+00    0.0000000000000000E+00
       B     8.4517591999504583E-08    1.9801243046215308E+01    0.0000000000000000E+00
       C     1.9410745324761048E-02   -8.0911568682235607E-07    1.3271891684330003E+01
       MULTIPLE_UNIT_CELL  1 1 1
     &END CELL
     &COORD
O    1.0138711989094285E+01    1.4091876949835449E+00    9.3704856043202707E+00
O    7.8193567742271641E+00    1.4767050747528034E+00    1.0616641827657125E+01
O    8.0710037905511420E+00    2.7296957737057848E+00    8.3220152288508391E+00
O    8.0610116305058241E+00    5.9009610279884613E-02    8.3704325095109304E+00
O    6.6532805468440053E+00    7.4338160799131925E-01    1.2896299917842393E+01
O    6.6584486652425738E+00    1.8905142318302694E+01    1.0778200472039764E+01
O    5.1678943488196794E+00    1.3188642295314896E+00    1.0786385043771110E+01
O    5.8923927170145669E+00    2.5628059295870957E+00    1.4064008678467403E+00
O    4.0806492459676846E+00    9.0264243431338953E-01    3.2756983968517106E-01
O    5.8932982994486762E+00    1.2839091218526508E-02    2.0720021672061368E+00
O    2.1627975254430147E+00    2.5358914559886987E+00    1.1531297927731745E+00
O    1.6746388368820269E+00    7.3744510500540827E-01    1.2537068542404135E+01
O    2.6510293283664832E+00    1.5767515444564222E+00    1.0196133335877146E+01
O    1.5122178431068907E+00    1.8978525577815457E+01    1.0368528958758619E+01
O    4.4911908437330306E+00    2.6473574441716043E+00    8.6152597687896613E+00
O    9.9060709506105304E+00    1.6923424370710990E+01    9.5428820834474894E+00
O    7.4059942370665555E+00    1.6415998906799175E+01    1.0285937181798738E+01
O    6.4888206853647805E+00    1.7081271012480791E+01    1.2696355740367853E+01
O    4.8296842667725519E+00    1.6996893511247151E+01    1.0620237936086527E+01
O    3.9760566187665289E+00    1.6498426122424792E+01    2.3124925131171362E-03
O    1.5977624835199202E+00    1.7240031448579735E+01    1.2361665590313244E+01
O    2.3513059412995831E+00    1.6502154334982329E+01    9.8675003789904050E+00
Si    8.5334665229249111E+00    1.4087715936262100E+00    9.1483106181943139E+00
Si    6.5731640506125881E+00    6.5706731856711043E-01    1.1273179025079900E+01
Si    5.6153263015805885E+00    1.0550761709282528E+00    8.6038860324659017E-01
Si    2.4883000420545498E+00    1.0287888733320061E+00    6.2599295956270440E-01
Si    1.4875421640289999E+00    7.1141934130374151E-01    1.0922793023264539E+01
Si    4.1217903107458547E+00    1.3758524488215937E+00    9.5479684072846318E+00
Si    8.4586769647836313E+00    1.6381419808939274E+01    9.0422707070453932E+00
Si    6.3490647475994324E+00    1.7346017291929329E+01    1.1094924456639156E+01
Si    5.5066932784484894E+00    1.6396084570537731E+01    5.5269920299047870E-01
Si    2.3699925738304466E+00    1.6408767879875924E+01    2.4860530796750388E-01
Si    1.3380759394469841E+00    1.7408821007738268E+01    1.0758491036111453E+01
Si    3.9134415054356637E+00    1.6407570935846035E+01    9.4098999428606795E+00
O    2.0107282971386027E+01    1.8393578156336094E+01    2.7361426324891811E+00
O    2.2500077579380862E+00    1.8323536451817130E+01    3.9855841120765176E+00
O    1.9920572330320259E+00    1.7069052982900370E+01    1.6772740451229524E+00
O    2.0674848636829215E+00    1.9726690772708121E+01    1.7405902572539913E+00
O    3.4222730489334654E+00    1.9054698001515820E+01    6.2696791234742664E+00
O    3.4065200415972625E+00    8.9478844633134336E-01    4.1470320306549846E+00
O    4.9087507151310215E+00    1.8480476135436792E+01    4.1459041077376186E+00
O    4.2352459184445319E+00    1.7234784750833203E+01    8.0438738901609579E+00
O    5.9875255772290865E+00    1.8907509625254846E+01    6.9646682836639568E+00
O    4.1630685686954196E+00    1.9790984626617703E+01    8.7075208538531257E+00
O    7.8949018409715359E+00    1.7258683012285854E+01    7.7904130050412563E+00
O    8.3952923294713901E+00    1.9059516164683270E+01    5.8864053732851804E+00
O    7.4775437480269389E+00    1.8235304254601420E+01    3.4937568739556881E+00
O    8.6290619000454925E+00    8.2439673635394928E-01    3.7313318347779707E+00
O    5.6403458578756069E+00    1.7149328297279904E+01    1.9809505877991589E+00
O    1.7480838091639880E-01    2.8814894668366646E+00    2.9081858032877883E+00
O    2.6620827968413665E+00    3.3819131072963033E+00    3.6571692532749114E+00
O    3.6023277072615936E+00    2.7223714865930582E+00    6.0705386378865915E+00
O    5.2373417415138173E+00    2.8042917773253246E+00    3.9806585248330655E+00
O    6.1295071888646522E+00    3.3062347980996258E+00    6.6329537132217951E+00
O    8.4845657999973323E+00    2.5583858357365385E+00    5.7183178098698555E+00
O    7.7287205267466197E+00    3.2960918237342409E+00    3.2392324368210437E+00
Si    1.5484392677449050E+00    1.8390122291550600E+01    2.5113976629149786E+00
Si    3.5013588082596310E+00    1.9140922528278484E+01    4.6413836447422216E+00
Si    4.4558282942204830E+00    1.8750491096399028E+01    7.4976955077264416E+00
Si    7.5833962046462826E+00    1.8770589737217502E+01    7.2610351974484129E+00
Si    8.6262971985271211E+00    1.9086725132198183E+01    4.2732441434655684E+00
Si    5.9732750662897827E+00    1.8430634864977179E+01    2.9130459968866544E+00
Si    1.6215884133265128E+00    3.4191631330557537E+00    2.4070184272607054E+00
Si    3.7221489259999805E+00    2.4538550178091239E+00    4.4648947368875591E+00
Si    4.5980760584146019E+00    3.4011820354463174E+00    7.1817034299367721E+00
Si    7.7294827163392830E+00    3.3983822473184739E+00    6.8882343218286390E+00
Si    8.7724160894621210E+00    2.3993180009673192E+00    4.1165314393003953E+00
Si    6.1680611927173459E+00    3.3941950888090888E+00    2.7793055644538369E+00
O    1.0045735037993511E+01    1.1309809637192975E+01    3.9014060599062663E+00
O    1.2365090402918106E+01    1.1377327057237460E+01    2.6552499247489916E+00
O    1.2113443314346769E+01    1.2630317809273297E+01    4.9498767168513718E+00
O    1.2123435325603142E+01    9.9596318473379419E+00    4.9014594200679511E+00
O    1.3531166606770352E+01    1.0644004052415637E+01    3.7559151161570975E-01
O    1.3525998519802897E+01    9.0045215268163954E+00    2.4936913969348571E+00
O    1.5016552784404771E+01    1.1219486122270798E+01    2.4855065145323576E+00
O    1.4292054213071177E+01    1.2463427081944772E+01    1.1865490767520729E+01
O    1.6103797771707569E+01    1.0803263478708603E+01    1.2944321730732460E+01
O    1.4291148491396200E+01    9.9134599830402603E+00    1.1199889429238709E+01
O    1.8021649835411665E+01    1.2436512925238361E+01    1.2118762087779309E+01
O    1.8509808000746443E+01    1.0638067704302363E+01    7.3482326911782481E-01
O    1.7533417033339035E+01    1.1477372942326348E+01    3.0757589224165307E+00
O    1.8672229378441244E+01    9.0779047341999721E+00    2.9033621340825615E+00
O    1.5693256152530077E+01    1.2547979145655274E+01    4.6566319499573954E+00
O    1.0278376234354695E+01    7.0228033412126889E+00    3.7290093778388935E+00
O    1.2778453003605605E+01    6.5153776943553412E+00    2.9859542188516022E+00
O    1.3695625889188314E+01    7.1806503866543272E+00    5.7553591128747084E-01
O    1.5354762379861150E+01    7.0962721812927887E+00    2.6516542641358005E+00
O    1.6208390677070806E+01    6.5978038272851292E+00    1.3269579732814101E+01
O    1.8586685968600090E+01    7.3394122673056916E+00    9.1022363782306448E-01
O    1.7833142736214707E+01    6.6015316978956387E+00    3.4043869537599591E+00
Si    1.1650980637592671E+01    1.1309393696417276E+01    4.1235812279732906E+00
Si    1.3611283105391752E+01    1.0557689485031434E+01    1.9987124111006020E+00
Si    1.4569120714784541E+01    1.0955697289285895E+01    1.2411502722931370E+01
Si    1.7696146992489350E+01    1.0929410304040273E+01    1.2645898949544865E+01
Si    1.8696904759236951E+01    1.0612042082853533E+01    2.3490989141341294E+00
Si    1.6062656007539356E+01    1.1276473458192914E+01    3.7239239477704005E+00
Si    1.1725770252733540E+01    6.4807985058751783E+00    4.2296203418427671E+00
Si    1.3835382175331175E+01    7.4453964890640432E+00    2.1769673313086368E+00
Si    1.4677753918331744E+01    6.4954624315947465E+00    1.2719193069154455E+01
Si    1.7814454641996111E+01    6.5081458017103015E+00    1.3023285751197346E+01
Si    1.8846372746233598E+01    7.5082007696122712E+00    2.5133975436398526E+00
Si    1.6271008153880768E+01    6.5069489633354163E+00    3.8619900945071679E+00
O    7.7163563841848942E-02    8.4929563318163552E+00    1.0535749218023845E+01
O    1.7934439461066830E+01    8.4229144665038849E+00    9.2863076329290237E+00
O    1.8192389583534244E+01    7.1684303126362918E+00    1.1594616729421993E+01
O    1.8116962061510900E+01    9.8260687246866034E+00    1.1531301731790293E+01
O    1.6762174025038384E+01    9.1540770564297134E+00    7.0022128825113201E+00
O    1.6777927123474360E+01    1.0795409295195599E+01    9.1248599358668816E+00
O    1.5275696236058577E+01    8.5798540853337109E+00    9.1259876586417779E+00
O    1.5949204677278312E+01    7.3341627746207907E+00    5.2280172611785201E+00
O    1.4196921829730773E+01    9.0068881055106758E+00    6.3072227666813330E+00
O    1.6021378291893004E+01    9.8903627375553711E+00    4.5643709869851978E+00
O    1.2289545691347524E+01    7.3580615924434438E+00    5.4814780687926143E+00
O    1.1789154759440299E+01    9.1588943338525954E+00    7.3854861449219626E+00
O    1.2706903316862237E+01    8.3346823293864283E+00    9.7781342631596821E+00
O    1.1555385172190334E+01    1.0725018001557791E+01    9.5405598292471900E+00
O    1.4544101390246858E+01    7.2487064701642616E+00    1.1290941676300982E+01
O    2.0009638846374752E+01    1.2782110925435358E+01    1.0363705545725328E+01
O    1.7522364296512286E+01    1.3282534140052613E+01    9.6147226797160084E+00
O    1.6582118763889266E+01    1.2622992942277554E+01    7.2013532721519375E+00
O    1.4947105426328557E+01    1.2704912717836725E+01    9.2912332929843711E+00
O    1.4054939852818721E+01    1.3206856621662981E+01    6.6389381489616026E+00
O    1.1699881228678287E+01    1.2459007288040940E+01    7.5535738183404497E+00
O    1.2455726671421596E+01    1.3196713211583294E+01    1.0032659157877244E+01
Si    1.8636007353744265E+01    8.4895002297141158E+00    1.0760494271386499E+01
Si    1.6683088278632390E+01    9.2403002336615767E+00    8.6305082845192160E+00
Si    1.5728619553315106E+01    8.8498683667054916E+00    5.7741961407919726E+00
Si    1.2601050991649624E+01    8.8699681649947841E+00    6.0108561678280772E+00
Si    1.1558149702846464E+01    9.1861033766473579E+00    8.9986473846440038E+00
Si    1.4211171879556897E+01    8.5300125551779971E+00    1.0358845736665815E+01
Si    1.8562858755009273E+01    1.3319784451468873E+01    1.0864873237696248E+01
Si    1.6462298168879233E+01    1.2354475596636378E+01    8.8069970947056291E+00
Si    1.5586370845809871E+01    1.3301803594485010E+01    6.0901882651436656E+00
Si    1.2454964376538916E+01    1.3299004162015072E+01    6.3836576891388797E+00
Si    1.1412031153259298E+01    1.2299939287454942E+01    9.1553601594468326E+00
Si    1.4016385991619085E+01    1.3294816422842224E+01    1.0492586001992063E+01
O    1.0045734779041116E+01    1.8392054172155913E+01    3.9014062661143560E+00
O    1.2365091250938219E+01    1.8324537676544530E+01    2.6552503400150731E+00
O    1.2113442788158496E+01    1.7071545771664983E+01    4.9498767509595121E+00
O    1.2123435547046359E+01    1.9742231205054122E+01    4.9014600353481717E+00
O    1.3531167158898789E+01    1.9057859983428031E+01    3.7559101901740466E-01
O    1.3525998931462192E+01    8.9610005187257524E-01    2.4936907945361320E+00
O    1.5016552811316943E+01    1.8482378017317625E+01    2.4855061633604905E+00
O    1.4292053912239549E+01    1.7238435888966389E+01    1.1865490450484538E+01
O    1.6103798071600696E+01    1.8898599190897638E+01    1.2944321343969419E+01
O    1.4291148739944346E+01    1.9788402771027293E+01    1.1199889006105989E+01
O    1.8021650576176881E+01    1.7265349673430965E+01    1.2118761492490647E+01
O    1.8509807683652777E+01    1.9063796838042645E+01    7.3482341241206972E-01
O    1.7533415534121843E+01    1.8224491562693100E+01    3.0757591565916855E+00
O    1.8672229047732174E+01    8.2271690692347599E-01    2.9033619026386503E+00
O    1.5693256908016778E+01    1.7153884262837597E+01    4.6566322935401274E+00
O    1.0278376771232818E+01    2.8778177073482283E+00    3.7290092908130519E+00
O    1.2778453584190293E+01    3.3852436072288308E+00    2.9859538189936199E+00
O    1.3695625331697691E+01    2.7199707331139336E+00    5.7553557948524725E-01
O    1.5354762407745527E+01    2.8043491032390486E+00    2.6516545319306206E+00
O    1.6208391215603775E+01    3.3028172145246391E+00    1.3269579941729948E+01
O    1.8586687703354890E+01    2.5612071868725503E+00    9.1022164038274445E-01
O    1.7833144937172516E+01    3.2990914144851642E+00    3.4043831426847722E+00
Si    1.1650980305029842E+01    1.8392469623749484E+01    4.1235813761066140E+00
Si    1.3611283651939843E+01    1.9144174833810180E+01    1.9987120529151818E+00
Si    1.4569121283234544E+01    1.8746164378869885E+01    1.2411502171755016E+01
Si    1.7696147638343291E+01    1.8772451963485292E+01    1.2645898502186190E+01
Si    1.8696903153707822E+01    1.9089821216083482E+01    2.3490992982739720E+00
Si    1.6062654623930854E+01    1.8425390078787025E+01    3.7239249337481644E+00
Si    1.1725770635131900E+01    3.4198225882211766E+00    4.2296196788413667E+00
Si    1.3835382590528239E+01    2.4552248151824694E+00    2.1769670464744508E+00
Si    1.4677753964707366E+01    3.4051572475482805E+00    1.2719193201100609E+01
Si    1.7814455599332138E+01    3.3924735399283823E+00    1.3023285001141643E+01
Si    1.8846374461379465E+01    2.3924191674626880E+00    2.5133952204056094E+00
Si    1.6271011147053184E+01    3.3936729695862993E+00    3.8619889975175368E+00
O    7.7163023760661711E-02    1.4076640665739539E+00    1.0535749531501329E+01
O    1.7934439463782006E+01    1.4777057467846986E+00    9.2863075687861869E+00
O    1.8192388902534727E+01    2.7321910463353345E+00    1.1594614599831537E+01
O    1.8116961487216862E+01    7.4551862900593860E-02    1.1531301891752378E+01
O    1.6762173740511187E+01    7.4654239994889815E-01    7.0022132571038940E+00
O    1.6777927577984084E+01    1.8906454887682035E+01    9.1248601304682033E+00
O    1.5275696463665733E+01    1.3207666938639682E+00    9.1259881046597329E+00
O    1.5949207886696829E+01    2.5664584618124868E+00    5.2280166925004581E+00
O    1.4196922009771532E+01    8.9373284640818507E-01    6.3072218792243406E+00
O    1.6021377878717480E+01    1.0258098090089688E-02    4.5643717544926465E+00
O    1.2289545648132789E+01    2.5425595880334892E+00    5.4814772545780821E+00
O    1.1789154546339020E+01    7.4172705348394086E-01    7.3854857520105224E+00
O    1.2706903740114992E+01    1.5659380246002854E+00    9.7781338210743716E+00
O    1.1555385255658916E+01    1.8976845753589998E+01    9.5405599751090087E+00
O    1.4544101848311390E+01    2.6519132027663077E+00    1.1290942060675993E+01
O    2.0009639990772033E+01    1.6919752954532029E+01    1.0363704134760003E+01
O    1.7522364462706992E+01    1.6419329409911676E+01    9.6147230593171589E+00
O    1.6582119306875029E+01    1.7078870629050680E+01    7.2013541430830124E+00
O    1.4947105873657405E+01    1.6996951131391246E+01    9.2912336571549723E+00
O    1.4054939320149852E+01    1.6495007396672921E+01    6.6389393006778912E+00
O    1.1699881112960281E+01    1.7242856583530841E+01    7.5535739310815870E+00
O    1.2455727153270720E+01    1.6505150655235145E+01    1.0032658939685890E+01
Si    1.8636007035551366E+01    1.4111197637589672E+00    1.0760493966009255E+01
Si    1.6683088141738644E+01    6.6032030024951927E-01    8.6305084442950619E+00
Si    1.5728620327979554E+01    1.0507531095313423E+00    5.7741962555846635E+00
Si    1.2601051191242812E+01    1.0306527354270822E+00    6.0108556505302788E+00
Si    1.1558149564663228E+01    7.1451713677764728E-01    8.9986468464691818E+00
Si    1.4211171825975862E+01    1.3706066831637946E+00    1.0358845922754384E+01
Si    1.8562860785174497E+01    1.6382078497249804E+01    1.0864872326219537E+01
Si    1.6462298804774630E+01    1.7347388437762390E+01    8.8069978653721535E+00
Si    1.5586370344627417E+01    1.6400060818916604E+01    6.0901896636461847E+00
Si    1.2454964016460551E+01    1.6402859652569038E+01    6.3836579534486768E+00
Si    1.1412031444874717E+01    1.7401924314732810E+01    9.1553602058555068E+00
Si    1.4016386487621423E+01    1.6407046224778487E+01    1.0492585156548307E+01
O    1.0138712269198441E+01    8.4914324352849224E+00    9.3704855345240290E+00
O    7.8193560600139183E+00    8.4239156886963951E+00    1.0616641306447304E+01
O    8.0710043132050959E+00    7.1709242077517805E+00    8.3220148873657269E+00
O    8.0610117971095594E+00    9.8416099318285788E+00    8.3704317454619535E+00
O    6.6532799786248340E+00    9.1572376189116778E+00    1.2896300355198413E+01
O    6.6584481543388589E+00    1.0796721199073238E+01    1.0778201078060135E+01
O    5.1678946063400106E+00    8.5817558867453752E+00    1.0786385258971086E+01
O    5.8923932004020312E+00    7.3378150974477832E+00    1.4064014344148159E+00
O    4.0806493180303249E+00    8.9979783053319391E+00    3.2757021940525005E-01
O    5.8932984537923501E+00    9.8877820232740401E+00    2.0720024849010157E+00
O    2.1627969254834514E+00    7.3647288496125904E+00    1.1531300918134404E+00
O    1.6746393434953026E+00    9.1631747457134924E+00    1.2537068136354970E+01
O    2.6510312276421732E+00    8.3238696645448123E+00    1.0196132564567494E+01
O    1.5122178100370123E+00    1.0723337982420789E+01    1.0368529285685954E+01
O    4.4911903568272553E+00    7.2532620671023551E+00    8.6152595281921496E+00
O    9.9060705161201668E+00    1.2778438770398797E+01    9.5428825504231600E+00
O    7.4059935114007001E+00    1.3285864736932576E+01    1.0285938124857347E+01
O    6.4888216460065342E+00    1.2620591410169066E+01    1.2696356137627559E+01
O    4.8296844872727656E+00    1.2704969895907615E+01    1.0620237219508015E+01
O    3.9760558854575021E+00    1.3203439514569224E+01    2.3120100059972042E-03
O    1.5977599055268372E+00    1.2461828299545106E+01    1.2361668948119091E+01
O    2.3513025575931334E+00    1.3199712297242792E+01    9.8675073205077339E+00
Si    8.5334666962783015E+00    8.4918480634858025E+00    9.1483102063506152E+00
Si    6.5731637019514713E+00    9.2435528679126726E+00    1.1273179420478089E+01
Si    5.6153261208591099E+00    8.8455436287040641E+00    8.6038938138241638E-01
Si    2.4882996989448416E+00    8.8718310881237787E+00    6.2599276957808947E-01
Si    1.4875433832761147E+00    9.1891994227865528E+00    1.0922792220544427E+01
Si    4.1217922555133244E+00    8.5247676703201343E+00    9.5479671176286267E+00
Si    8.4586767285134190E+00    1.3320443908686155E+01    9.0422724793862486E+00
Si    6.3490642867675255E+00    1.2355845900833977E+01    1.1094924641063876E+01
Si    5.5066931227129494E+00    1.3305779607340851E+01    5.5269843067411339E-01
Si    2.3699914218409512E+00    1.3293095506895497E+01    2.4860649684546982E-01
Si    1.3380728123786116E+00    1.2293040436980617E+01    1.0758494991559139E+01
Si    3.9134366762135921E+00    1.3294293853055610E+01    9.4099022267588204E+00
O    2.0107284232696792E+01    1.1308286407062567E+01    2.7361420755933326E+00
O    2.2500074947679383E+00    1.1378327622321086E+01    3.9855843689110917E+00
O    1.9920582045257205E+00    1.2632813351692761E+01    1.6772772219376677E+00
O    2.0674857564796838E+00    9.9751741685271096E+00    1.7405895967531038E+00
O    3.4222733165528019E+00    1.0647163860149838E+01    6.2696783350459464E+00
O    3.4065195273241158E+00    9.0058335879871141E+00    4.1470316276397092E+00
O    4.9087504646917086E+00    1.1221388428931292E+01    4.1459034117901910E+00
O    4.2352400722005941E+00    1.2467079481221225E+01    8.0438747778982052E+00
O    5.9875251091210080E+00    1.0794353932300689E+01    6.9646696707064688E+00
O    4.1630689589087702E+00    9.9108788935074426E+00    8.7075200099493095E+00
O    7.8949016118525464E+00    1.2443181102207902E+01    7.7904145884718972E+00
O    8.3952925985341427E+00    1.0642348599076856E+01    5.8864059446685726E+00
O    7.4775432143992626E+00    1.1466559878046795E+01    3.4937577278216447E+00
O    8.6290619279116942E+00    9.0762245804273629E+00    3.7313317740200942E+00
O    5.6403449975315132E+00    1.2552535502134109E+01    1.9809496155829351E+00
O    1.7480764176926233E-01    7.0191316689600782E+00    2.9081867370645815E+00
O    2.6620828241342966E+00    6.5187082155590783E+00    3.6571689811705408E+00
O    3.6023273198790000E+00    7.1782490648538317E+00    6.0705377340608146E+00
O    5.2373413585001130E+00    7.0963298900456211E+00    3.9806581268354715E+00
O    6.1295077146188834E+00    6.5943857962428583E+00    6.6329524481580027E+00
O    8.4845658772953119E+00    7.3422351346587797E+00    5.7183177496425159E+00
O    7.7287200344042049E+00    6.6045295838215612E+00    3.2392326351896381E+00
Si    1.5484402954674219E+00    1.1311741906434412E+01    2.5113976908753877E+00
Si    3.5013587967844724E+00    1.0560942131455604E+01    4.6413831565192565E+00
Si    4.4558267902303932E+00    1.0951373612356043E+01    7.4976955119737214E+00
Si    7.5833959789823222E+00    1.0931274404126636E+01    7.2610360578025217E+00
Si    8.6262975058555149E+00    1.0615139173105780E+01    4.2732448015171673E+00
Si    5.9732750685243028E+00    1.1271228964971844E+01    2.9130455428309121E+00
Si    1.6215873632715423E+00    6.4814572969400208E+00    2.4070193029414093E+00
Si    3.7221486808579973E+00    7.4467673155465084E+00    4.4648941714718164E+00
Si    4.5980766043422578E+00    6.4994391334729755E+00    7.1817019438851029E+00
Si    7.7294830788957682E+00    6.5022380205500134E+00    6.8882337009057890E+00
Si    8.7724157349109877E+00    7.5013032274429152E+00    4.1165314113815521E+00
Si    6.1680606960264726E+00    6.5064249841298523E+00    2.7793063755701581E+00
O    8.6342560393534367E+00    1.4850931527716108E+01    8.5328930629022661E+00
O    5.9692800042373975E+00    1.4850931547462229E+01    7.5084279807303367E-01
O    1.9009136869327405E+00    1.4850931370603753E+01    2.4248452728491648E-01
O    4.2566895782352399E+00    1.4850931178890443E+01    9.1177167172657718E+00
O    1.4947106705142668E+00    4.9503103783162139E+00    1.8932519913187564E+00
O    4.1584942800290143E+00    4.9503104111818264E+00    7.3872240985210844E+00
O    8.2268728316956423E+00    4.9503099236663397E+00    6.8812267405107104E+00
O    5.8082433133597000E+00    4.9503101372834566E+00    2.4856694192929591E+00
O    1.1550191353620932E+01    4.9503104123780348E+00    4.7389984646335250E+00
O    1.4215167617140517E+01    4.9503093782784555E+00    1.2521048718303097E+01
O    1.8283533747520565E+01    4.9503092694301669E+00    1.3029407312660096E+01
O    1.5927757920830270E+01    4.9503099453405870E+00    4.1541761092916252E+00
O    1.8689737063797651E+01    1.4850931675996845E+01    1.1378639667922762E+01
O    1.6025952501321932E+01    1.4850932072021227E+01    5.8846673157892191E+00
O    1.1957573980413047E+01    1.4850931647935681E+01    6.3906651265597878E+00
O    1.4376203838694160E+01    1.4850931356066749E+01    1.0786222238121994E+01
       UNIT angstrom
       SCALED  F
     &END COORD
     &KIND H
       BASIS_SET DZVP-MOLOPT-SR-GTH
       POTENTIAL GTH-PBE-q1
     &END KIND
     &KIND C
       BASIS_SET DZVP-MOLOPT-SR-GTH
       POTENTIAL GTH-PBE-q4
     &END KIND
     &KIND N
       BASIS_SET DZVP-MOLOPT-SR-GTH
       POTENTIAL GTH-PBE-q5
     &END KIND
     &KIND Si
       BASIS_SET DZVP-MOLOPT-SR-GTH
       POTENTIAL GTH-PBE-q4
       &POTENTIAL
 2 2
  0.4400000000000000E+00 1 -0.6269288330000000E+01
 2
  0.4356338300000000E+00 2  0.8951741500000001E+01 -0.2706270820000000E+01
  0.3493780600000000E+01
  0.4979421800000000E+00 1  0.2431276730000000E+01
         # Potential name:  GTH-PBE-Q4  for symbol:  SI
         # Potential read from the potential filename: GTH_POTENTIALS
       &END POTENTIAL
     &END KIND
     &KIND Cl
       BASIS_SET DZVP-MOLOPT-SR-GTH
       POTENTIAL GTH-PBE-q7
     &END KIND
     &KIND O
       BASIS_SET DZVP-MOLOPT-SR-GTH
       POTENTIAL GTH-PBE-q6
       &POTENTIAL
 2 4
  0.2445543000000000E+00 2 -0.1666721480000000E+02  0.2487311320000000E+01
 2
  0.2209559200000000E+00 1  0.1833745811000000E+02
  0.2113324700000000E+00 0
         # Potential name:  GTH-PBE-Q6  for symbol:  O
         # Potential read from the potential filename: GTH_POTENTIALS
       &END POTENTIAL
     &END KIND
     &KIND Al
       BASIS_SET DZVP-MOLOPT-SR-GTH
       POTENTIAL GTH-PBE-q3
     &END KIND
     &TOPOLOGY
       NUMBER_OF_ATOMS  288
       MULTIPLE_UNIT_CELL  1 1 1
     &END TOPOLOGY
   &END SUBSYS
 &END FORCE_EVAL
